222 5
10 10 10 10 10 

0 0 0 0 0 0 2 2 54 
0 0 0 0 0 0 4 3 4 5 7 
2 1 1 1 1 1 5 16 13 12 11 8 
10 4 3 5 4 1 2 11 6 
3 7 2 2 3 1 1 6 
10 3 5 1 2 2 3 18 16 9 
7 2 2 4 3 3 2 18 9 
10 2 1 4 2 2 1 9 
3 1 3 2 4 1 1 10 
2 4 3 1 2 1 4 22 21 19 14 
5 2 1 2 2 5 4 21 19 18 14 
6 2 4 3 4 2 2 21 15 
2 4 2 5 2 5 2 18 17 
4 1 2 3 4 4 1 15 
2 2 2 2 2 3 1 17 
4 4 2 2 2 1 1 17 
9 2 2 2 3 2 4 29 28 24 20 
1 3 2 3 1 3 2 24 20 
4 4 2 3 2 4 3 28 24 23 
5 3 4 3 1 1 2 25 23 
6 2 2 2 1 3 1 24 
8 1 2 2 1 1 1 23 
5 3 6 3 2 4 1 26 
6 1 3 4 3 5 1 26 
4 1 2 4 2 3 1 26 
8 2 3 1 4 2 1 27 
7 4 1 2 2 1 1 30 
10 3 3 3 4 2 2 30 137 
8 2 4 2 2 2 1 30 
3 4 1 2 3 2 3 35 33 31 
5 1 3 4 2 2 1 32 
9 1 4 1 2 2 3 39 36 34 
5 3 2 1 2 3 2 36 34 
8 1 2 2 2 2 3 43 41 37 
6 2 4 6 1 3 2 41 36 
3 3 2 2 1 1 1 38 
7 2 2 2 4 1 1 38 
9 3 1 2 4 2 1 40 
6 1 4 1 4 2 1 41 
4 1 3 1 3 4 1 42 
10 4 3 2 2 1 1 42 
7 3 3 7 3 5 1 44 
2 3 2 3 3 2 1 44 
10 3 1 2 3 2 1 45 
5 2 1 1 2 5 2 49 46 
10 2 4 5 5 2 2 48 47 
7 2 2 2 4 2 2 52 50 
2 6 5 1 2 5 2 52 51 
5 2 2 2 3 2 1 50 
2 2 3 2 2 3 1 51 
6 2 1 2 1 3 1 53 
4 2 1 1 2 4 1 53 
0 0 0 0 0 0 1 222 
0 0 0 0 0 0 4 55 56 57 61 
8 0 0 1 0 0 2 60 59 
6 0 0 3 0 0 1 58 
1 0 0 2 0 0 1 58 
6 0 0 2 0 0 1 59 
3 0 0 2 0 0 1 62 
10 0 0 3 0 0 2 62 167 
5 0 0 1 0 0 1 62 
4 0 0 3 0 0 2 64 63 
5 0 0 5 0 0 1 65 
9 0 0 3 0 0 1 65 
0 0 0 0 0 0 2 66 78 
0 0 0 0 0 0 2 67 69 
7 0 1 0 0 0 1 68 
1 0 3 0 0 0 2 71 70 
3 0 3 0 0 0 2 72 70 
7 0 1 0 0 0 2 74 73 
8 0 4 0 0 0 2 74 73 
9 0 1 0 0 0 2 74 73 
5 0 2 0 0 0 2 76 214 
3 0 2 0 0 0 1 75 
10 0 3 0 0 0 1 77 
8 0 5 0 0 0 1 77 
0 0 0 0 0 0 2 120 132 
0 0 0 0 0 0 2 79 82 
7 0 1 1 1 1 1 80 
6 0 2 2 2 2 2 83 81 
5 0 2 2 4 3 4 96 91 88 84 
2 0 2 2 1 5 3 96 88 85 
2 0 3 2 2 2 4 104 96 90 86 
10 0 1 5 3 4 1 85 
5 0 5 2 1 4 2 90 86 
1 0 2 2 5 1 2 99 87 
6 0 5 3 3 2 1 89 
6 0 2 3 3 2 1 90 
6 0 4 4 3 1 4 103 101 95 92 
10 0 4 3 1 1 4 103 101 95 92 
9 0 2 1 2 2 5 108 103 101 95 93 
1 0 3 1 2 3 2 108 93 
8 0 2 3 1 1 1 94 
5 0 4 1 2 2 4 118 113 106 97 
3 0 1 2 2 1 2 106 97 
2 0 4 2 3 1 3 113 103 102 
3 0 2 2 2 1 2 117 98 
9 0 3 2 1 4 2 111 100 
1 0 2 3 3 3 2 110 103 
1 0 3 1 4 1 1 102 
1 0 2 2 3 3 1 102 
1 0 4 2 3 4 1 105 
6 0 1 3 2 2 3 116 111 109 
6 0 1 3 2 3 3 116 111 109 
4 0 3 4 3 2 2 115 107 
5 0 2 3 3 2 2 111 109 
1 0 5 3 4 3 2 116 110 
4 0 3 5 3 3 1 110 
2 0 5 2 1 4 2 115 114 
7 0 3 2 2 3 1 112 
3 0 2 4 3 4 1 112 
10 0 1 3 2 1 2 114 206 
1 0 1 2 4 4 1 115 
2 0 1 3 2 2 1 119 
1 0 1 1 2 3 1 119 
10 0 3 3 1 2 1 119 
9 0 1 3 1 3 1 119 
9 0 2 3 8 5 1 119 
0 0 0 0 0 0 1 222 
0 0 0 0 0 0 4 121 123 124 130 
8 0 0 1 0 0 1 122 
5 0 0 1 0 0 2 128 125 
9 0 0 4 0 0 2 128 125 
4 0 0 4 0 0 3 129 128 127 
7 0 0 3 0 0 1 126 
10 0 0 4 0 0 1 127 
8 0 0 2 0 0 1 131 
5 0 0 2 0 0 1 131 
3 0 0 2 0 0 2 131 218 
2 0 0 2 0 0 1 131 
0 0 0 0 0 0 2 164 176 
0 0 0 0 0 0 3 133 134 139 
5 1 1 0 0 1 2 144 135 
7 3 3 0 0 2 2 144 135 
5 3 2 0 0 2 2 140 136 
1 1 3 0 0 2 2 141 137 
9 3 1 0 0 3 1 138 
7 2 2 0 0 2 3 148 145 142 
2 1 3 0 0 1 2 144 143 
5 3 2 0 0 1 1 141 
4 6 7 0 0 3 2 148 143 
5 1 1 0 0 2 1 143 
5 4 3 0 0 1 3 153 151 146 
8 3 1 0 0 2 4 153 148 146 200 
10 2 1 0 0 2 2 153 147 
6 2 3 0 0 2 1 147 
6 3 4 0 0 2 2 155 149 
1 4 2 0 0 1 1 149 
7 3 3 0 0 3 1 150 
4 1 4 0 0 1 1 152 
10 3 2 0 0 3 1 152 
10 3 4 0 0 1 3 162 157 154 
1 1 1 0 0 4 2 162 154 
1 1 1 0 0 5 4 161 160 158 156 
1 3 2 0 0 3 2 158 156 
4 1 3 0 0 4 1 159 
5 3 3 0 0 3 1 158 
9 3 2 0 0 7 1 163 
7 4 2 0 0 1 1 163 
9 3 4 0 0 3 1 163 
6 1 2 0 0 4 1 163 
1 3 3 0 0 4 1 163 
0 0 0 0 0 0 1 222 
0 0 0 0 0 0 3 165 167 170 
9 0 0 0 0 1 1 166 
4 0 0 0 0 2 2 172 168 
10 0 0 0 0 3 3 174 172 171 
5 0 0 0 0 5 1 169 
3 0 0 0 0 1 1 171 
3 0 0 0 0 4 1 173 
10 0 0 0 0 3 1 175 
10 0 0 0 0 1 1 175 
5 0 0 0 0 3 1 175 
4 0 0 0 0 2 1 175 
0 0 0 0 0 0 2 198 210 
0 0 0 0 0 0 2 177 178 
9 1 0 0 0 1 2 181 180 
4 3 0 0 0 1 2 183 179 
2 2 0 0 0 4 1 180 
9 4 0 0 0 1 3 189 186 182 
2 3 0 0 0 2 3 186 184 183 
7 3 0 0 0 3 1 184 
9 2 0 0 0 3 3 190 188 187 
4 5 0 0 0 3 1 185 
5 1 0 0 0 2 3 194 190 187 
5 1 0 0 0 3 3 194 190 187 
2 1 0 0 0 1 2 192 191 
9 4 0 0 0 4 2 194 193 
3 2 0 0 0 2 2 194 193 
6 3 0 0 0 5 2 196 195 
5 1 0 0 0 3 1 193 
1 3 0 0 0 3 1 193 
8 3 0 0 0 3 1 195 
8 4 0 0 0 1 1 195 
3 3 0 0 0 4 1 197 
1 1 0 0 0 1 1 197 
0 0 0 0 0 0 1 222 
0 0 0 0 0 0 2 199 201 
9 0 1 0 0 0 2 203 200 
2 0 1 0 0 0 3 208 204 202 
9 0 2 0 0 0 3 208 207 206 
8 0 3 0 0 0 2 207 205 
7 0 5 0 0 0 2 207 205 
8 0 3 0 0 0 2 207 206 
1 0 2 0 0 0 1 206 
9 0 2 0 0 0 1 209 
1 0 4 0 0 0 1 209 
2 0 2 0 0 0 1 209 
0 0 0 0 0 0 1 222 
0 0 0 0 0 0 2 211 212 
6 0 0 0 0 1 3 215 214 213 
10 0 0 0 0 2 2 216 215 
2 0 0 0 0 3 2 220 216 
5 0 0 0 0 3 2 220 216 
7 0 0 0 0 2 2 220 217 
6 0 0 0 0 2 1 217 
8 0 0 0 0 2 2 219 218 
10 0 0 0 0 3 1 221 
9 0 0 0 0 3 1 221 
9 0 0 0 0 4 1 221 
0 0 0 0 0 0 1 222 
0 0 0 0 0 0 0 
